p cnf 957 1248
c ind 1 2 3 4 5 6 7 8 9 10 11 12 13 14 15 16 17 18 19 20 21 22 23 24 25 26 27 0
-1 28 0
-4 29 0
-7 30 0
-10 28 0
-13 29 0
-16 30 0
-19 28 0
-22 29 0
-25 30 0
-2 31 0
-5 32 0
-8 33 0
-11 31 0
-14 32 0
-17 33 0
-20 31 0
-23 32 0
-26 33 0
-3 34 0
-6 35 0
-9 36 0
-12 34 0
-15 35 0
-18 36 0
-21 34 0
-24 35 0
-27 36 0
-1 -28 37 0
-1 -29 38 0
-1 -30 39 0
-4 -28 40 0
-4 -29 41 0
-4 -30 42 0
-7 -28 43 0
-7 -29 44 0
-7 -30 45 0
-10 -28 46 0
-10 -29 47 0
-10 -30 48 0
-13 -28 49 0
-13 -29 50 0
-13 -30 51 0
-16 -28 52 0
-16 -29 53 0
-16 -30 54 0
-19 -28 55 0
-19 -29 56 0
-19 -30 57 0
-22 -28 58 0
-22 -29 59 0
-22 -30 60 0
-25 -28 61 0
-25 -29 62 0
-25 -30 63 0
-2 -31 37 0
-2 -32 38 0
-2 -33 39 0
-5 -31 40 0
-5 -32 41 0
-5 -33 42 0
-8 -31 43 0
-8 -32 44 0
-8 -33 45 0
-11 -31 46 0
-11 -32 47 0
-11 -33 48 0
-14 -31 49 0
-14 -32 50 0
-14 -33 51 0
-17 -31 52 0
-17 -32 53 0
-17 -33 54 0
-20 -31 55 0
-20 -32 56 0
-20 -33 57 0
-23 -31 58 0
-23 -32 59 0
-23 -33 60 0
-26 -31 61 0
-26 -32 62 0
-26 -33 63 0
-3 -34 37 0
-3 -35 38 0
-3 -36 39 0
-6 -34 40 0
-6 -35 41 0
-6 -36 42 0
-9 -34 43 0
-9 -35 44 0
-9 -36 45 0
-12 -34 46 0
-12 -35 47 0
-12 -36 48 0
-15 -34 49 0
-15 -35 50 0
-15 -36 51 0
-18 -34 52 0
-18 -35 53 0
-18 -36 54 0
-21 -34 55 0
-21 -35 56 0
-21 -36 57 0
-24 -34 58 0
-24 -35 59 0
-24 -36 60 0
-27 -34 61 0
-27 -35 62 0
-27 -36 63 0
-1 1 -37 0
-4 1 -38 0
-7 1 -39 0
-1 4 -40 0
-4 4 -41 0
-7 4 -42 0
-1 7 -43 0
-4 7 -44 0
-7 7 -45 0
-10 10 -46 0
-13 10 -47 0
-16 10 -48 0
-10 13 -49 0
-13 13 -50 0
-16 13 -51 0
-10 16 -52 0
-13 16 -53 0
-16 16 -54 0
-19 19 -55 0
-22 19 -56 0
-25 19 -57 0
-19 22 -58 0
-22 22 -59 0
-25 22 -60 0
-19 25 -61 0
-22 25 -62 0
-25 25 -63 0
-2 2 -37 0
-5 2 -38 0
-8 2 -39 0
-2 5 -40 0
-5 5 -41 0
-8 5 -42 0
-2 8 -43 0
-5 8 -44 0
-8 8 -45 0
-11 11 -46 0
-14 11 -47 0
-17 11 -48 0
-11 14 -49 0
-14 14 -50 0
-17 14 -51 0
-11 17 -52 0
-14 17 -53 0
-17 17 -54 0
-20 20 -55 0
-23 20 -56 0
-26 20 -57 0
-20 23 -58 0
-23 23 -59 0
-26 23 -60 0
-20 26 -61 0
-23 26 -62 0
-26 26 -63 0
-3 3 -37 0
-6 3 -38 0
-9 3 -39 0
-3 6 -40 0
-6 6 -41 0
-9 6 -42 0
-3 9 -43 0
-6 9 -44 0
-9 9 -45 0
-12 12 -46 0
-15 12 -47 0
-18 12 -48 0
-12 15 -49 0
-15 15 -50 0
-18 15 -51 0
-12 18 -52 0
-15 18 -53 0
-18 18 -54 0
-21 21 -55 0
-24 21 -56 0
-27 21 -57 0
-21 24 -58 0
-24 24 -59 0
-27 24 -60 0
-21 27 -61 0
-24 27 -62 0
-27 27 -63 0
1 2 3 0
-1 -2 0
-1 -3 0
-2 -3 0
4 5 6 0
-4 -5 0
-4 -6 0
-5 -6 0
7 8 9 0
-7 -8 0
-7 -9 0
-8 -9 0
10 11 12 0
-10 -11 0
-10 -12 0
-11 -12 0
13 14 15 0
-13 -14 0
-13 -15 0
-14 -15 0
16 17 18 0
-16 -17 0
-16 -18 0
-17 -18 0
19 20 21 0
-19 -20 0
-19 -21 0
-20 -21 0
22 23 24 0
-22 -23 0
-22 -24 0
-23 -24 0
25 26 27 0
-25 -26 0
-25 -27 0
-26 -27 0
-828 -1 25 26 0
-828 -2 25 0
-828 -3 0
-829 -1 27 0
-829 -2 26 0
-829 -3 25 0
828 829 0
828 830 0
-830 831 832 0
-830 831 833 0
-833 834 835 0
-833 834 836 0
-836 837 838 0
-836 837 839 0
-839 840 841 0
-839 840 842 0
-842 843 844 0
-842 843 845 0
-845 846 847 0
-845 846 848 0
-848 849 850 0
-848 849 851 0
-851 852 853 0
-831 -4 22 23 0
-831 -5 22 0
-831 -6 0
-832 -4 24 0
-832 -5 23 0
-832 -6 22 0
828 829 0
828 830 0
-830 831 832 0
-830 831 833 0
-833 834 835 0
-833 834 836 0
-836 837 838 0
-836 837 839 0
-839 840 841 0
-839 840 842 0
-842 843 844 0
-842 843 845 0
-845 846 847 0
-845 846 848 0
-848 849 850 0
-848 849 851 0
-851 852 853 0
-834 -7 19 20 0
-834 -8 19 0
-834 -9 0
-835 -7 21 0
-835 -8 20 0
-835 -9 19 0
828 829 0
828 830 0
-830 831 832 0
-830 831 833 0
-833 834 835 0
-833 834 836 0
-836 837 838 0
-836 837 839 0
-839 840 841 0
-839 840 842 0
-842 843 844 0
-842 843 845 0
-845 846 847 0
-845 846 848 0
-848 849 850 0
-848 849 851 0
-851 852 853 0
-837 -10 16 17 0
-837 -11 16 0
-837 -12 0
-838 -10 18 0
-838 -11 17 0
-838 -12 16 0
828 829 0
828 830 0
-830 831 832 0
-830 831 833 0
-833 834 835 0
-833 834 836 0
-836 837 838 0
-836 837 839 0
-839 840 841 0
-839 840 842 0
-842 843 844 0
-842 843 845 0
-845 846 847 0
-845 846 848 0
-848 849 850 0
-848 849 851 0
-851 852 853 0
-840 13 0
-841 14 0
828 829 0
828 830 0
-830 831 832 0
-830 831 833 0
-833 834 835 0
-833 834 836 0
-836 837 838 0
-836 837 839 0
-839 840 841 0
-839 840 842 0
-842 843 844 0
-842 843 845 0
-845 846 847 0
-845 846 848 0
-848 849 850 0
-848 849 851 0
-851 852 853 0
-843 -16 10 11 0
-843 -17 10 0
-843 -18 0
-844 -16 12 0
-844 -17 11 0
-844 -18 10 0
828 829 0
828 830 0
-830 831 832 0
-830 831 833 0
-833 834 835 0
-833 834 836 0
-836 837 838 0
-836 837 839 0
-839 840 841 0
-839 840 842 0
-842 843 844 0
-842 843 845 0
-845 846 847 0
-845 846 848 0
-848 849 850 0
-848 849 851 0
-851 852 853 0
-846 -19 7 8 0
-846 -20 7 0
-846 -21 0
-847 -19 9 0
-847 -20 8 0
-847 -21 7 0
828 829 0
828 830 0
-830 831 832 0
-830 831 833 0
-833 834 835 0
-833 834 836 0
-836 837 838 0
-836 837 839 0
-839 840 841 0
-839 840 842 0
-842 843 844 0
-842 843 845 0
-845 846 847 0
-845 846 848 0
-848 849 850 0
-848 849 851 0
-851 852 853 0
-849 -22 4 5 0
-849 -23 4 0
-849 -24 0
-850 -22 6 0
-850 -23 5 0
-850 -24 4 0
828 829 0
828 830 0
-830 831 832 0
-830 831 833 0
-833 834 835 0
-833 834 836 0
-836 837 838 0
-836 837 839 0
-839 840 841 0
-839 840 842 0
-842 843 844 0
-842 843 845 0
-845 846 847 0
-845 846 848 0
-848 849 850 0
-848 849 851 0
-851 852 853 0
-852 -25 1 2 0
-852 -26 1 0
-852 -27 0
-853 -25 3 0
-853 -26 2 0
-853 -27 1 0
828 829 0
828 830 0
-830 831 832 0
-830 831 833 0
-833 834 835 0
-833 834 836 0
-836 837 838 0
-836 837 839 0
-839 840 841 0
-839 840 842 0
-842 843 844 0
-842 843 845 0
-845 846 847 0
-845 846 848 0
-848 849 850 0
-848 849 851 0
-851 852 853 0
-854 2 0
-855 1 0
854 855 0
854 856 0
-856 857 858 0
-856 857 859 0
-859 860 861 0
-859 860 862 0
-862 863 864 0
-862 863 865 0
-865 866 867 0
-865 866 868 0
-868 869 870 0
-868 869 871 0
-871 872 873 0
-871 872 874 0
-874 875 876 0
-874 875 877 0
-877 878 879 0
-857 -4 8 9 0
-857 -5 8 0
-857 -6 0
-858 -4 7 0
-858 -5 9 0
-858 -6 8 0
854 855 0
854 856 0
-856 857 858 0
-856 857 859 0
-859 860 861 0
-859 860 862 0
-862 863 864 0
-862 863 865 0
-865 866 867 0
-865 866 868 0
-868 869 870 0
-868 869 871 0
-871 872 873 0
-871 872 874 0
-874 875 876 0
-874 875 877 0
-877 878 879 0
-860 -7 5 6 0
-860 -8 5 0
-860 -9 0
-861 -7 4 0
-861 -8 6 0
-861 -9 5 0
854 855 0
854 856 0
-856 857 858 0
-856 857 859 0
-859 860 861 0
-859 860 862 0
-862 863 864 0
-862 863 865 0
-865 866 867 0
-865 866 868 0
-868 869 870 0
-868 869 871 0
-871 872 873 0
-871 872 874 0
-874 875 876 0
-874 875 877 0
-877 878 879 0
-863 -10 20 21 0
-863 -11 20 0
-863 -12 0
-864 -10 19 0
-864 -11 21 0
-864 -12 20 0
854 855 0
854 856 0
-856 857 858 0
-856 857 859 0
-859 860 861 0
-859 860 862 0
-862 863 864 0
-862 863 865 0
-865 866 867 0
-865 866 868 0
-868 869 870 0
-868 869 871 0
-871 872 873 0
-871 872 874 0
-874 875 876 0
-874 875 877 0
-877 878 879 0
-866 -13 26 27 0
-866 -14 26 0
-866 -15 0
-867 -13 25 0
-867 -14 27 0
-867 -15 26 0
854 855 0
854 856 0
-856 857 858 0
-856 857 859 0
-859 860 861 0
-859 860 862 0
-862 863 864 0
-862 863 865 0
-865 866 867 0
-865 866 868 0
-868 869 870 0
-868 869 871 0
-871 872 873 0
-871 872 874 0
-874 875 876 0
-874 875 877 0
-877 878 879 0
-869 -16 23 24 0
-869 -17 23 0
-869 -18 0
-870 -16 22 0
-870 -17 24 0
-870 -18 23 0
854 855 0
854 856 0
-856 857 858 0
-856 857 859 0
-859 860 861 0
-859 860 862 0
-862 863 864 0
-862 863 865 0
-865 866 867 0
-865 866 868 0
-868 869 870 0
-868 869 871 0
-871 872 873 0
-871 872 874 0
-874 875 876 0
-874 875 877 0
-877 878 879 0
-872 -19 11 12 0
-872 -20 11 0
-872 -21 0
-873 -19 10 0
-873 -20 12 0
-873 -21 11 0
854 855 0
854 856 0
-856 857 858 0
-856 857 859 0
-859 860 861 0
-859 860 862 0
-862 863 864 0
-862 863 865 0
-865 866 867 0
-865 866 868 0
-868 869 870 0
-868 869 871 0
-871 872 873 0
-871 872 874 0
-874 875 876 0
-874 875 877 0
-877 878 879 0
-875 -22 17 18 0
-875 -23 17 0
-875 -24 0
-876 -22 16 0
-876 -23 18 0
-876 -24 17 0
854 855 0
854 856 0
-856 857 858 0
-856 857 859 0
-859 860 861 0
-859 860 862 0
-862 863 864 0
-862 863 865 0
-865 866 867 0
-865 866 868 0
-868 869 870 0
-868 869 871 0
-871 872 873 0
-871 872 874 0
-874 875 876 0
-874 875 877 0
-877 878 879 0
-878 -25 14 15 0
-878 -26 14 0
-878 -27 0
-879 -25 13 0
-879 -26 15 0
-879 -27 14 0
854 855 0
854 856 0
-856 857 858 0
-856 857 859 0
-859 860 861 0
-859 860 862 0
-862 863 864 0
-862 863 865 0
-865 866 867 0
-865 866 868 0
-868 869 870 0
-868 869 871 0
-871 872 873 0
-871 872 874 0
-874 875 876 0
-874 875 877 0
-877 878 879 0
-880 -1 13 15 0
-880 -2 15 0
-880 -3 0
-881 -1 14 0
-881 -2 13 0
-881 -3 15 0
880 881 0
880 882 0
-882 883 884 0
-882 883 885 0
-885 886 887 0
-885 886 888 0
-888 889 890 0
-888 889 891 0
-891 892 893 0
-891 892 894 0
-894 895 896 0
-894 895 897 0
-897 898 899 0
-897 898 900 0
-900 901 902 0
-900 901 903 0
-903 904 905 0
-883 -4 10 12 0
-883 -5 12 0
-883 -6 0
-884 -4 11 0
-884 -5 10 0
-884 -6 12 0
880 881 0
880 882 0
-882 883 884 0
-882 883 885 0
-885 886 887 0
-885 886 888 0
-888 889 890 0
-888 889 891 0
-891 892 893 0
-891 892 894 0
-894 895 896 0
-894 895 897 0
-897 898 899 0
-897 898 900 0
-900 901 902 0
-900 901 903 0
-903 904 905 0
-886 -7 16 18 0
-886 -8 18 0
-886 -9 0
-887 -7 17 0
-887 -8 16 0
-887 -9 18 0
880 881 0
880 882 0
-882 883 884 0
-882 883 885 0
-885 886 887 0
-885 886 888 0
-888 889 890 0
-888 889 891 0
-891 892 893 0
-891 892 894 0
-894 895 896 0
-894 895 897 0
-897 898 899 0
-897 898 900 0
-900 901 902 0
-900 901 903 0
-903 904 905 0
-889 -10 4 6 0
-889 -11 6 0
-889 -12 0
-890 -10 5 0
-890 -11 4 0
-890 -12 6 0
880 881 0
880 882 0
-882 883 884 0
-882 883 885 0
-885 886 887 0
-885 886 888 0
-888 889 890 0
-888 889 891 0
-891 892 893 0
-891 892 894 0
-894 895 896 0
-894 895 897 0
-897 898 899 0
-897 898 900 0
-900 901 902 0
-900 901 903 0
-903 904 905 0
-892 -13 1 3 0
-892 -14 3 0
-892 -15 0
-893 -13 2 0
-893 -14 1 0
-893 -15 3 0
880 881 0
880 882 0
-882 883 884 0
-882 883 885 0
-885 886 887 0
-885 886 888 0
-888 889 890 0
-888 889 891 0
-891 892 893 0
-891 892 894 0
-894 895 896 0
-894 895 897 0
-897 898 899 0
-897 898 900 0
-900 901 902 0
-900 901 903 0
-903 904 905 0
-895 -16 7 9 0
-895 -17 9 0
-895 -18 0
-896 -16 8 0
-896 -17 7 0
-896 -18 9 0
880 881 0
880 882 0
-882 883 884 0
-882 883 885 0
-885 886 887 0
-885 886 888 0
-888 889 890 0
-888 889 891 0
-891 892 893 0
-891 892 894 0
-894 895 896 0
-894 895 897 0
-897 898 899 0
-897 898 900 0
-900 901 902 0
-900 901 903 0
-903 904 905 0
-898 -19 22 24 0
-898 -20 24 0
-898 -21 0
-899 -19 23 0
-899 -20 22 0
-899 -21 24 0
880 881 0
880 882 0
-882 883 884 0
-882 883 885 0
-885 886 887 0
-885 886 888 0
-888 889 890 0
-888 889 891 0
-891 892 893 0
-891 892 894 0
-894 895 896 0
-894 895 897 0
-897 898 899 0
-897 898 900 0
-900 901 902 0
-900 901 903 0
-903 904 905 0
-901 -22 19 21 0
-901 -23 21 0
-901 -24 0
-902 -22 20 0
-902 -23 19 0
-902 -24 21 0
880 881 0
880 882 0
-882 883 884 0
-882 883 885 0
-885 886 887 0
-885 886 888 0
-888 889 890 0
-888 889 891 0
-891 892 893 0
-891 892 894 0
-894 895 896 0
-894 895 897 0
-897 898 899 0
-897 898 900 0
-900 901 902 0
-900 901 903 0
-903 904 905 0
-904 25 0
-905 27 0
880 881 0
880 882 0
-882 883 884 0
-882 883 885 0
-885 886 887 0
-885 886 888 0
-888 889 890 0
-888 889 891 0
-891 892 893 0
-891 892 894 0
-894 895 896 0
-894 895 897 0
-897 898 899 0
-897 898 900 0
-900 901 902 0
-900 901 903 0
-903 904 905 0
-906 -1 13 15 0
-906 -2 13 0
-906 -3 0
-907 -1 14 0
-907 -2 15 0
-907 -3 13 0
906 907 0
906 908 0
-908 909 910 0
-908 909 911 0
-911 912 913 0
-911 912 914 0
-914 915 916 0
-914 915 917 0
-917 918 919 0
-917 918 920 0
-920 921 922 0
-920 921 923 0
-923 924 925 0
-923 924 926 0
-926 927 928 0
-926 927 929 0
-929 930 931 0
-909 -4 16 18 0
-909 -5 16 0
-909 -6 0
-910 -4 17 0
-910 -5 18 0
-910 -6 16 0
906 907 0
906 908 0
-908 909 910 0
-908 909 911 0
-911 912 913 0
-911 912 914 0
-914 915 916 0
-914 915 917 0
-917 918 919 0
-917 918 920 0
-920 921 922 0
-920 921 923 0
-923 924 925 0
-923 924 926 0
-926 927 928 0
-926 927 929 0
-929 930 931 0
-912 -7 10 12 0
-912 -8 10 0
-912 -9 0
-913 -7 11 0
-913 -8 12 0
-913 -9 10 0
906 907 0
906 908 0
-908 909 910 0
-908 909 911 0
-911 912 913 0
-911 912 914 0
-914 915 916 0
-914 915 917 0
-917 918 919 0
-917 918 920 0
-920 921 922 0
-920 921 923 0
-923 924 925 0
-923 924 926 0
-926 927 928 0
-926 927 929 0
-929 930 931 0
-915 -10 22 24 0
-915 -11 22 0
-915 -12 0
-916 -10 23 0
-916 -11 24 0
-916 -12 22 0
906 907 0
906 908 0
-908 909 910 0
-908 909 911 0
-911 912 913 0
-911 912 914 0
-914 915 916 0
-914 915 917 0
-917 918 919 0
-917 918 920 0
-920 921 922 0
-920 921 923 0
-923 924 925 0
-923 924 926 0
-926 927 928 0
-926 927 929 0
-929 930 931 0
-918 -13 25 27 0
-918 -14 25 0
-918 -15 0
-919 -13 26 0
-919 -14 27 0
-919 -15 25 0
906 907 0
906 908 0
-908 909 910 0
-908 909 911 0
-911 912 913 0
-911 912 914 0
-914 915 916 0
-914 915 917 0
-917 918 919 0
-917 918 920 0
-920 921 922 0
-920 921 923 0
-923 924 925 0
-923 924 926 0
-926 927 928 0
-926 927 929 0
-929 930 931 0
-921 -16 19 21 0
-921 -17 19 0
-921 -18 0
-922 -16 20 0
-922 -17 21 0
-922 -18 19 0
906 907 0
906 908 0
-908 909 910 0
-908 909 911 0
-911 912 913 0
-911 912 914 0
-914 915 916 0
-914 915 917 0
-917 918 919 0
-917 918 920 0
-920 921 922 0
-920 921 923 0
-923 924 925 0
-923 924 926 0
-926 927 928 0
-926 927 929 0
-929 930 931 0
-924 -19 4 6 0
-924 -20 4 0
-924 -21 0
-925 -19 5 0
-925 -20 6 0
-925 -21 4 0
906 907 0
906 908 0
-908 909 910 0
-908 909 911 0
-911 912 913 0
-911 912 914 0
-914 915 916 0
-914 915 917 0
-917 918 919 0
-917 918 920 0
-920 921 922 0
-920 921 923 0
-923 924 925 0
-923 924 926 0
-926 927 928 0
-926 927 929 0
-929 930 931 0
-927 -22 7 9 0
-927 -23 7 0
-927 -24 0
-928 -22 8 0
-928 -23 9 0
-928 -24 7 0
906 907 0
906 908 0
-908 909 910 0
-908 909 911 0
-911 912 913 0
-911 912 914 0
-914 915 916 0
-914 915 917 0
-917 918 919 0
-917 918 920 0
-920 921 922 0
-920 921 923 0
-923 924 925 0
-923 924 926 0
-926 927 928 0
-926 927 929 0
-929 930 931 0
-930 -25 1 3 0
-930 -26 1 0
-930 -27 0
-931 -25 2 0
-931 -26 3 0
-931 -27 1 0
906 907 0
906 908 0
-908 909 910 0
-908 909 911 0
-911 912 913 0
-911 912 914 0
-914 915 916 0
-914 915 917 0
-917 918 919 0
-917 918 920 0
-920 921 922 0
-920 921 923 0
-923 924 925 0
-923 924 926 0
-926 927 928 0
-926 927 929 0
-929 930 931 0
-932 -1 25 26 0
-932 -2 26 0
-932 -3 0
-933 -1 27 0
-933 -2 25 0
-933 -3 26 0
932 933 0
932 934 0
-934 935 936 0
-934 935 937 0
-937 938 939 0
-937 938 940 0
-940 941 942 0
-940 941 943 0
-943 944 945 0
-943 944 946 0
-946 947 948 0
-946 947 949 0
-949 950 951 0
-949 950 952 0
-952 953 954 0
-952 953 955 0
-955 956 957 0
-935 -4 19 20 0
-935 -5 20 0
-935 -6 0
-936 -4 21 0
-936 -5 19 0
-936 -6 20 0
932 933 0
932 934 0
-934 935 936 0
-934 935 937 0
-937 938 939 0
-937 938 940 0
-940 941 942 0
-940 941 943 0
-943 944 945 0
-943 944 946 0
-946 947 948 0
-946 947 949 0
-949 950 951 0
-949 950 952 0
-952 953 954 0
-952 953 955 0
-955 956 957 0
-938 -7 22 23 0
-938 -8 23 0
-938 -9 0
-939 -7 24 0
-939 -8 22 0
-939 -9 23 0
932 933 0
932 934 0
-934 935 936 0
-934 935 937 0
-937 938 939 0
-937 938 940 0
-940 941 942 0
-940 941 943 0
-943 944 945 0
-943 944 946 0
-946 947 948 0
-946 947 949 0
-949 950 951 0
-949 950 952 0
-952 953 954 0
-952 953 955 0
-955 956 957 0
-941 -10 7 8 0
-941 -11 8 0
-941 -12 0
-942 -10 9 0
-942 -11 7 0
-942 -12 8 0
932 933 0
932 934 0
-934 935 936 0
-934 935 937 0
-937 938 939 0
-937 938 940 0
-940 941 942 0
-940 941 943 0
-943 944 945 0
-943 944 946 0
-946 947 948 0
-946 947 949 0
-949 950 951 0
-949 950 952 0
-952 953 954 0
-952 953 955 0
-955 956 957 0
-944 -13 1 2 0
-944 -14 2 0
-944 -15 0
-945 -13 3 0
-945 -14 1 0
-945 -15 2 0
932 933 0
932 934 0
-934 935 936 0
-934 935 937 0
-937 938 939 0
-937 938 940 0
-940 941 942 0
-940 941 943 0
-943 944 945 0
-943 944 946 0
-946 947 948 0
-946 947 949 0
-949 950 951 0
-949 950 952 0
-952 953 954 0
-952 953 955 0
-955 956 957 0
-947 -16 4 5 0
-947 -17 5 0
-947 -18 0
-948 -16 6 0
-948 -17 4 0
-948 -18 5 0
932 933 0
932 934 0
-934 935 936 0
-934 935 937 0
-937 938 939 0
-937 938 940 0
-940 941 942 0
-940 941 943 0
-943 944 945 0
-943 944 946 0
-946 947 948 0
-946 947 949 0
-949 950 951 0
-949 950 952 0
-952 953 954 0
-952 953 955 0
-955 956 957 0
-950 -19 16 17 0
-950 -20 17 0
-950 -21 0
-951 -19 18 0
-951 -20 16 0
-951 -21 17 0
932 933 0
932 934 0
-934 935 936 0
-934 935 937 0
-937 938 939 0
-937 938 940 0
-940 941 942 0
-940 941 943 0
-943 944 945 0
-943 944 946 0
-946 947 948 0
-946 947 949 0
-949 950 951 0
-949 950 952 0
-952 953 954 0
-952 953 955 0
-955 956 957 0
-953 -22 10 11 0
-953 -23 11 0
-953 -24 0
-954 -22 12 0
-954 -23 10 0
-954 -24 11 0
932 933 0
932 934 0
-934 935 936 0
-934 935 937 0
-937 938 939 0
-937 938 940 0
-940 941 942 0
-940 941 943 0
-943 944 945 0
-943 944 946 0
-946 947 948 0
-946 947 949 0
-949 950 951 0
-949 950 952 0
-952 953 954 0
-952 953 955 0
-955 956 957 0
-956 -25 13 14 0
-956 -26 14 0
-956 -27 0
-957 -25 15 0
-957 -26 13 0
-957 -27 14 0
932 933 0
932 934 0
-934 935 936 0
-934 935 937 0
-937 938 939 0
-937 938 940 0
-940 941 942 0
-940 941 943 0
-943 944 945 0
-943 944 946 0
-946 947 948 0
-946 947 949 0
-949 950 951 0
-949 950 952 0
-952 953 954 0
-952 953 955 0
-955 956 957 0
